100 156150
80 61 15 84 25 37 34 47 18 77 30 83 24 50 59 35 65 67 6 69 11 29 93 32 28 42 3 7 13 57 43 36 99 52 97 81 46 100 44 39 26 72 66 85 5 58 68 86 62 41 94 9 55 2 4 19 74 64 51 78 1 21 76 17 96 10 20 33 63 98 12 22 14 82 89 87 95 8 40 16 90 23 49 53 48 79 54 27 60 73 75 45 38 56 92 71 91 70 31 88 
